CMD:
./solvers/bin/cadical --plain --no-reduce -t 1600 ./data/cnfs//6s405rb611/6s405rb611.95.cnf

c --- [ banner ] -------------------------------------------------------------
c 
c CaDiCaL SAT Solver
c Copyright (c) 2016-2024
c A. Biere, M. Fleury, N. Froleyks, K. Fazekas, F. Pollitt, T. Faller
c JKU Linz, University of Freiburg, TU Wien
c 
c Version 2.1.3 5296d3d2a9bf48c154ab2acb5e44625776d821bf
c g++ (Gentoo 12.3.1_p20230526 p2) 12.3.1 20230526 -Wall -Wextra -O3 -DNDEBUG
c Sat Aug 9 07:26:21 PDT 2025 Linux cedar2.int.cedar.computecanada.ca 5.14.0-362.24.2.el9_3.x86_64 x86_64
c 
c --- [ limit ] --------------------------------------------------------------
c 
c setting time limit to 1600 seconds real time (due to '-t 1600')
c 
c --- [ parsing input ] ------------------------------------------------------
c 
c reading DIMACS file from './data/cnfs//6s405rb611/6s405rb611.95.cnf'
c opening file to read './data/cnfs//6s405rb611/6s405rb611.95.cnf'
c found 'p cnf 12243248 36537749' header
c parsed 36537749 clauses in 6.73 seconds process time
c 
c --- [ options ] ------------------------------------------------------------
c 
c   --compact=false                (different from default 'true')
c   --decompose=false              (different from default 'true')
c   --deduplicate=false            (different from default 'true')
c   --elim=false                   (different from default 'true')
c   --probe=false                  (different from default 'true')
c   --reduce=false                 (different from default 'true')
c   --subsume=false                (different from default 'true')
c   --ternary=false                (different from default 'true')
c   --transred=false               (different from default 'true')
c   --vivify=false                 (different from default 'true')
c 
c --- [ solving ] ------------------------------------------------------------
c 
c time measured in process time since initialization
c 
c  seconds    reductions  redundant   irredundant
c          MB     restarts       trail          variables
c            level   conflicts       glue              remaining
c 
c *  6.73 5220  0 0   0    0    0  0% 0 33058862 10703054 87%
c {  6.81 5223  0 0   0    0    0  0% 0 33058862 10703054 87%
c i  6.95 5224 862 0   0   27   25 13% 2 33058862 10703053 87%
c i  6.95 5224 835 0   0   29   26 13% 2 33058862 10703052 87%
c i  6.96 5224 700 0   0   41   35 13% 2 33058862 10702840 87%
c i  6.96 5224 654 0   0   45   38 13% 1 33058862 10702839 87%
c i  6.96 5224 550 0   0   57   44 12% 1 33058862 10701181 87%
c i  6.96 5224 540 0   0   58   44 12% 1 33058862 10701178 87%
c i  6.96 5224 530 0   0   59   44 12% 1 33058862 10701173 87%
c }  6.96 5224 521 0   0   61   44 12% 1 33058862 10700871 87%
c 0  6.96 5224 521 0   0   61   44 12% 1 33058862 10700871 87%
c 
c --- [ result ] -------------------------------------------------------------
c 
s UNSATISFIABLE
c 
c --- [ run-time profiling ] -------------------------------------------------
c 
c process time taken by individual solving procedures
c (percentage relative to process time for solving)
c 
c         6.73 2924.98% parse
c         0.23   99.95% search
c         0.15   64.22% unstable
c         0.08   35.72% lucky
c         0.00    0.00% simplify
c   =================================
c         0.23    3.31% solve
c 
c last line shows process time for solving
c (percentage relative to total process time)
c 
c --- [ statistics ] ---------------------------------------------------------
c 
c chronological:                43        70.49 %  of conflicts
c conflicts:                    61       265.08    per second
c decisions:                  2004      8708.58    per second
c fixed:                   1505198        12.29 %  of all variables
c learned:                      58        95.08 %  per conflict
c learned_lits:                186       100.00 %  learned literals
c minimized:                     0         0.00 %  learned literals
c shrunken:                     29        15.59 %  learned literals
c minishrunken:                  0         0.00 %  learned literals
c otfs:                          1         1.64 %  of conflict
c propagations:            1779311         7.73 M  per second
c subsumed:                      2         0.00 %  of all clauses
c strengthened:                  1         0.00 %  of all clauses
c 
c seconds are measured in process time for solving
c 
c --- [ resources ] ----------------------------------------------------------
c 
c total process time since initialization:         6.96    seconds
c total real time since initialization:            6.99    seconds
c maximum resident set size of process:         5223.27    MB
c 
c --- [ shutting down ] ------------------------------------------------------
c 
c exit 20
